7
8
74
14
13
9
5
21
25
24
46
45
44
48
47
69
68
70
67
33
34
36
37
18
17
16
15
12
11
10
4
22
23
1
76
75
2
3
20
19
31
30
29
32
35
38
39
40
41
60
59
58
55
56
57
61
62
63
64
73
72
71
65
66
51
50
49
52
53
54
42
43
28
27
26
6
7
